(set-logic QF_S)
(declare-fun _var_0xINPUT_126612_() String)
(declare-fun __woorpje_diseq_pref0_() String)
(declare-fun __woorpje_diseq_suf_l0_() String)
(declare-fun __woorpje_diseq_suf_r0_() String)
(assert (=(str.++ _var_0xINPUT_126612_  "")(str.++ __woorpje_diseq_pref0_  "2" __woorpje_diseq_suf_l0_  "")) )
(assert (=(str.++  "3lABVjA2UN" "")(str.++ __woorpje_diseq_pref0_  "N" __woorpje_diseq_suf_r0_  "")) )
(check-sat)
